benchmark/results/graph__15-1000-0.10-02_18/graph__15-1000-0.10-02_18_QuintonOs_Benders_sub.lp
\ This file has been generated by DOcplex
\ ENCODING=ISO-8859-1
\Problem name: Quinton Bounded Benders_dual_sub

Minimize
 obj: 0.001470588235 pi_nr_a0 + 0.001141552511 pi_nr_a1
      + 0.001501501502 pi_nr_a2 + 0.000838926174 pi_nr_a3
      + 0.001547987616 pi_nr_a4 + 0.001310615990 pi_nr_a5
      + 0.000990099010 pi_nr_a6 + 0.001126126126 pi_nr_a7
      + 0.000771604938 pi_nr_a8 + 0.001522070015 pi_nr_a9
      + 0.001248439451 pi_nr_a10 + 0.001103752759 pi_nr_a11
      + 0.001077586207 pi_nr_a12 + 0.001358695652 pi_nr_a13
      + 0.001004016064 pi_nr_a14 + pi_p_a6_a7 + pi_p_a8_a9 + pi_p_a10_a9
      + pi_p_a9_a0 + pi_p_a5_a11 + pi_p_a8_a11 + pi_p_a9_a14 + pi_p_a13_a13
      + pi_p_a11_a3 + pi_p_a5_a13 + pi_p_a11_a14 + pi_d_a1_a0_proc_0
      + 1280 pi_d_a0_a2_proc_0 + 1313 pi_d_a2_a0_proc_0 + pi_d_a0_a3_proc_0
      + 1280 pi_d_a0_a4_proc_0 + 1313 pi_d_a4_a0_proc_0 + pi_d_a5_a0_proc_0
      + pi_d_a6_a0_proc_0 + pi_d_a0_a7_proc_0 + 1280 pi_d_a0_a8_proc_0
      + 1313 pi_d_a8_a0_proc_0 + 1313 pi_d_a0_a9_proc_0 + 1280 pi_d_a9_a0_proc_0
      + 1280 pi_d_a0_a11_proc_0 + 1313 pi_d_a11_a0_proc_0
      + 1313 pi_d_a0_a12_proc_0 + 1280 pi_d_a12_a0_proc_0
      + 1280 pi_d_a0_a13_proc_0 + 1313 pi_d_a13_a0_proc_0
      + 1313 pi_d_a0_a14_proc_0 + 1280 pi_d_a14_a0_proc_0
      + 1313 pi_d_a1_a2_proc_0 + 1313 pi_d_a1_a2_proc_1 + 1280 pi_d_a2_a1_proc_0
      + 1280 pi_d_a2_a1_proc_1 + pi_d_a1_a3_proc_0 + 1280 pi_d_a1_a4_proc_0
      + 1280 pi_d_a1_a4_proc_1 + 1313 pi_d_a4_a1_proc_0 + 1313 pi_d_a4_a1_proc_1
      + pi_d_a5_a1_proc_0 + pi_d_a1_a6_proc_0 + 2593 pi_d_a1_a6_proc_1
      + 2592 pi_d_a6_a1_proc_1 + pi_d_a1_a7_proc_0 + 2593 pi_d_a1_a7_proc_1
      + 2592 pi_d_a7_a1_proc_1 + 1280 pi_d_a1_a8_proc_0 + 1280 pi_d_a1_a8_proc_1
      + 1313 pi_d_a8_a1_proc_0 + 1313 pi_d_a8_a1_proc_1 + 1280 pi_d_a1_a9_proc_0
      + 1280 pi_d_a1_a9_proc_1 + 1313 pi_d_a9_a1_proc_0 + 1313 pi_d_a9_a1_proc_1
      + 1280 pi_d_a1_a10_proc_1 + 1313 pi_d_a10_a1_proc_1
      + 1313 pi_d_a1_a11_proc_0 + 1313 pi_d_a1_a11_proc_1
      + 1280 pi_d_a11_a1_proc_0 + 1280 pi_d_a11_a1_proc_1
      + 1313 pi_d_a1_a12_proc_0 + 1313 pi_d_a1_a12_proc_1
      + 1280 pi_d_a12_a1_proc_0 + 1280 pi_d_a12_a1_proc_1
      + 1313 pi_d_a1_a13_proc_0 + 1313 pi_d_a1_a13_proc_1
      + 1280 pi_d_a13_a1_proc_0 + 1280 pi_d_a13_a1_proc_1
      + 1280 pi_d_a1_a14_proc_0 + 1280 pi_d_a1_a14_proc_1
      + 1313 pi_d_a14_a1_proc_0 + 1313 pi_d_a14_a1_proc_1
      + 1280 pi_d_a2_a3_proc_0 + 1313 pi_d_a3_a2_proc_0 + 2592 pi_d_a2_a4_proc_0
      + 2593 pi_d_a4_a2_proc_0 + pi_d_a4_a2_proc_1 + 1313 pi_d_a2_a5_proc_0
      + 1280 pi_d_a5_a2_proc_0 + 1280 pi_d_a2_a6_proc_0 + 1280 pi_d_a2_a6_proc_1
      + 1313 pi_d_a6_a2_proc_0 + 1313 pi_d_a6_a2_proc_1 + 1280 pi_d_a2_a7_proc_0
      + 1280 pi_d_a2_a7_proc_1 + 1313 pi_d_a7_a2_proc_0 + 1313 pi_d_a7_a2_proc_1
      + 2592 pi_d_a2_a8_proc_0 + 2593 pi_d_a8_a2_proc_0 + pi_d_a8_a2_proc_1
      + 2592 pi_d_a2_a9_proc_0 + 2593 pi_d_a9_a2_proc_0 + pi_d_a9_a2_proc_1
      - pi_d_a2_a10_proc_1 + 2 pi_d_a10_a2_proc_1 + 2593 pi_d_a2_a11_proc_0
      + pi_d_a2_a11_proc_1 + 2592 pi_d_a11_a2_proc_0 + 2592 pi_d_a2_a12_proc_0
      + 2593 pi_d_a12_a2_proc_0 + pi_d_a12_a2_proc_1 + 2593 pi_d_a2_a13_proc_0
      + pi_d_a2_a13_proc_1 + 2592 pi_d_a13_a2_proc_0 + 2593 pi_d_a2_a14_proc_0
      + pi_d_a2_a14_proc_1 + 2592 pi_d_a14_a2_proc_0 + 1313 pi_d_a3_a4_proc_0
      + 1280 pi_d_a4_a3_proc_0 + pi_d_a5_a3_proc_0 + pi_d_a6_a3_proc_0
      + pi_d_a3_a7_proc_0 + 1280 pi_d_a3_a8_proc_0 + 1313 pi_d_a8_a3_proc_0
      + 1313 pi_d_a3_a9_proc_0 + 1280 pi_d_a9_a3_proc_0
      + 1313 pi_d_a3_a11_proc_0 + 1280 pi_d_a11_a3_proc_0
      + 1280 pi_d_a3_a12_proc_0 + 1313 pi_d_a12_a3_proc_0
      + 1313 pi_d_a3_a13_proc_0 + 1280 pi_d_a13_a3_proc_0
      + 1280 pi_d_a3_a14_proc_0 + 1313 pi_d_a14_a3_proc_0
      + 1280 pi_d_a4_a5_proc_0 + 1313 pi_d_a5_a4_proc_0 + 1280 pi_d_a4_a6_proc_0
      + 1280 pi_d_a4_a6_proc_1 + 1313 pi_d_a6_a4_proc_0 + 1313 pi_d_a6_a4_proc_1
      + 1313 pi_d_a4_a7_proc_0 + 1313 pi_d_a4_a7_proc_1 + 1280 pi_d_a7_a4_proc_0
      + 1280 pi_d_a7_a4_proc_1 + 2592 pi_d_a4_a8_proc_0 + 2593 pi_d_a8_a4_proc_0
      + pi_d_a8_a4_proc_1 + 2592 pi_d_a4_a9_proc_0 + 2593 pi_d_a9_a4_proc_0
      + pi_d_a9_a4_proc_1 + pi_d_a10_a4_proc_1 + 2593 pi_d_a4_a11_proc_0
      + pi_d_a4_a11_proc_1 + 2592 pi_d_a11_a4_proc_0 + 2592 pi_d_a4_a12_proc_0
      + 2593 pi_d_a12_a4_proc_0 + pi_d_a12_a4_proc_1 + 2593 pi_d_a4_a13_proc_0
      + pi_d_a4_a13_proc_1 + 2592 pi_d_a13_a4_proc_0 + 2593 pi_d_a4_a14_proc_0
      + pi_d_a4_a14_proc_1 + 2592 pi_d_a14_a4_proc_0 + pi_d_a5_a6_proc_0
      + 2 pi_d_a5_a7_proc_0 - pi_d_a7_a5_proc_0 + 1313 pi_d_a5_a8_proc_0
      + 1280 pi_d_a8_a5_proc_0 + 1313 pi_d_a5_a9_proc_0 + 1280 pi_d_a9_a5_proc_0
      + 1313 pi_d_a5_a11_proc_0 + 1280 pi_d_a11_a5_proc_0
      + 1313 pi_d_a5_a12_proc_0 + 1280 pi_d_a12_a5_proc_0
      + 1313 pi_d_a5_a13_proc_0 + 1280 pi_d_a13_a5_proc_0
      + 1313 pi_d_a5_a14_proc_0 + 1280 pi_d_a14_a5_proc_0 + pi_d_a6_a7_proc_0
      + 2593 pi_d_a6_a7_proc_1 + 2592 pi_d_a7_a6_proc_1 + 1313 pi_d_a6_a8_proc_0
      + 1313 pi_d_a6_a8_proc_1 + 1280 pi_d_a8_a6_proc_0 + 1280 pi_d_a8_a6_proc_1
      + 1280 pi_d_a6_a9_proc_0 + 1280 pi_d_a6_a9_proc_1 + 1313 pi_d_a9_a6_proc_0
      + 1313 pi_d_a9_a6_proc_1 + 1313 pi_d_a6_a10_proc_1
      + 1280 pi_d_a10_a6_proc_1 + 1280 pi_d_a6_a11_proc_0
      + 1280 pi_d_a6_a11_proc_1 + 1313 pi_d_a11_a6_proc_0
      + 1313 pi_d_a11_a6_proc_1 + 1280 pi_d_a6_a12_proc_0
      + 1280 pi_d_a6_a12_proc_1 + 1313 pi_d_a12_a6_proc_0
      + 1313 pi_d_a12_a6_proc_1 + 1280 pi_d_a6_a13_proc_0
      + 1280 pi_d_a6_a13_proc_1 + 1313 pi_d_a13_a6_proc_0
      + 1313 pi_d_a13_a6_proc_1 + 1280 pi_d_a6_a14_proc_0
      + 1280 pi_d_a6_a14_proc_1 + 1313 pi_d_a14_a6_proc_0
      + 1313 pi_d_a14_a6_proc_1 + 1313 pi_d_a7_a8_proc_0
      + 1313 pi_d_a7_a8_proc_1 + 1280 pi_d_a8_a7_proc_0 + 1280 pi_d_a8_a7_proc_1
      + 1313 pi_d_a7_a9_proc_0 + 1313 pi_d_a7_a9_proc_1 + 1280 pi_d_a9_a7_proc_0
      + 1280 pi_d_a9_a7_proc_1 + 1280 pi_d_a7_a10_proc_1
      + 1313 pi_d_a10_a7_proc_1 + 1280 pi_d_a7_a11_proc_0
      + 1280 pi_d_a7_a11_proc_1 + 1313 pi_d_a11_a7_proc_0
      + 1313 pi_d_a11_a7_proc_1 + 1313 pi_d_a7_a12_proc_0
      + 1313 pi_d_a7_a12_proc_1 + 1280 pi_d_a12_a7_proc_0
      + 1280 pi_d_a12_a7_proc_1 + 1280 pi_d_a7_a13_proc_0
      + 1280 pi_d_a7_a13_proc_1 + 1313 pi_d_a13_a7_proc_0
      + 1313 pi_d_a13_a7_proc_1 + 1280 pi_d_a7_a14_proc_0
      + 1280 pi_d_a7_a14_proc_1 + 1313 pi_d_a14_a7_proc_0
      + 1313 pi_d_a14_a7_proc_1 + 2593 pi_d_a8_a9_proc_0 + pi_d_a8_a9_proc_1
      + 2592 pi_d_a9_a8_proc_0 + pi_d_a10_a8_proc_1 + 2593 pi_d_a8_a11_proc_0
      + pi_d_a8_a11_proc_1 + 2592 pi_d_a11_a8_proc_0 + 2593 pi_d_a8_a12_proc_0
      + pi_d_a8_a12_proc_1 + 2592 pi_d_a12_a8_proc_0 + 2593 pi_d_a8_a13_proc_0
      + pi_d_a8_a13_proc_1 + 2592 pi_d_a13_a8_proc_0 + 2594 pi_d_a8_a14_proc_0
      + 2 pi_d_a8_a14_proc_1 + 2591 pi_d_a14_a8_proc_0 - pi_d_a14_a8_proc_1
      + pi_d_a10_a9_proc_1 + 2593 pi_d_a9_a11_proc_0 + pi_d_a9_a11_proc_1
      + 2592 pi_d_a11_a9_proc_0 + 2592 pi_d_a9_a12_proc_0
      + 2593 pi_d_a12_a9_proc_0 + pi_d_a12_a9_proc_1 + 2593 pi_d_a9_a13_proc_0
      + pi_d_a9_a13_proc_1 + 2592 pi_d_a13_a9_proc_0 + 2593 pi_d_a9_a14_proc_0
      + pi_d_a9_a14_proc_1 + 2592 pi_d_a14_a9_proc_0 + 2 pi_d_a10_a11_proc_1
      - pi_d_a11_a10_proc_1 + pi_d_a10_a12_proc_1 + 2 pi_d_a10_a13_proc_1
      - pi_d_a13_a10_proc_1 + 2 pi_d_a10_a14_proc_1 - pi_d_a14_a10_proc_1
      + 2592 pi_d_a11_a12_proc_0 + 2593 pi_d_a12_a11_proc_0
      + pi_d_a12_a11_proc_1 + 2593 pi_d_a11_a13_proc_0 + pi_d_a11_a13_proc_1
      + 2592 pi_d_a13_a11_proc_0 + 2593 pi_d_a11_a14_proc_0
      + pi_d_a11_a14_proc_1 + 2592 pi_d_a14_a11_proc_0
      + 2593 pi_d_a12_a13_proc_0 + pi_d_a12_a13_proc_1
      + 2592 pi_d_a13_a12_proc_0 + 2594 pi_d_a12_a14_proc_0
      + 2 pi_d_a12_a14_proc_1 + 2591 pi_d_a14_a12_proc_0 - pi_d_a14_a12_proc_1
      + 2593 pi_d_a13_a14_proc_0 + pi_d_a13_a14_proc_1
      + 2592 pi_d_a14_a13_proc_0 + pi_y2_a0_proc_0 + pi_y2_a1_proc_0
      + pi_y2_a2_proc_1 + pi_y2_a3_proc_0 + pi_y2_a4_proc_1 + pi_y2_a5_proc_0
      + pi_y2_a6_proc_0 + pi_y2_a7_proc_0 + pi_y2_a8_proc_1 + pi_y2_a9_proc_1
      + pi_y2_a10_proc_1 + pi_y2_a11_proc_1 + pi_y2_a12_proc_1
      + pi_y2_a13_proc_1 + pi_y2_a14_proc_1
Subject To
 c1: pi_nr_a0 + pi_nr_a1 + pi_nr_a2 + pi_nr_a3 + pi_nr_a4 + pi_nr_a5 + pi_nr_a6
     + pi_nr_a7 + pi_nr_a8 + pi_nr_a9 + pi_nr_a10 + pi_nr_a11 + pi_nr_a12
     + pi_nr_a13 + pi_nr_a14 - pi_y1_a0 - pi_y1_a1 - pi_y1_a2 - pi_y1_a3
     - pi_y1_a4 - pi_y1_a5 - pi_y1_a6 - pi_y1_a7 - pi_y1_a8 - pi_y1_a9
     - pi_y1_a10 - pi_y1_a11 - pi_y1_a12 - pi_y1_a13 - pi_y1_a14 >= 1
 c2: pi_p_a0_a1 - pi_p_a3_a0 - pi_p_a9_a0 - pi_p_a7_a0 + pi_d_a0_a1_proc_0
     - pi_d_a1_a0_proc_0 + pi_d_a0_a2_proc_0 - pi_d_a2_a0_proc_0
     + pi_d_a0_a3_proc_0 - pi_d_a3_a0_proc_0 + pi_d_a0_a4_proc_0
     - pi_d_a4_a0_proc_0 + pi_d_a0_a5_proc_0 - pi_d_a5_a0_proc_0
     + pi_d_a0_a6_proc_0 - pi_d_a6_a0_proc_0 + pi_d_a0_a7_proc_0
     - pi_d_a7_a0_proc_0 + pi_d_a0_a8_proc_0 - pi_d_a8_a0_proc_0
     + pi_d_a0_a9_proc_0 - pi_d_a9_a0_proc_0 + pi_d_a0_a11_proc_0
     - pi_d_a11_a0_proc_0 + pi_d_a0_a12_proc_0 - pi_d_a12_a0_proc_0
     + pi_d_a0_a13_proc_0 - pi_d_a13_a0_proc_0 + pi_d_a0_a14_proc_0
     - pi_d_a14_a0_proc_0 >= 0
 c3: 680 pi_p_a0_a1 + 680 pi_d_a0_a1_proc_0 + 680 pi_d_a0_a2_proc_0
     + 680 pi_d_a0_a3_proc_0 + 680 pi_d_a0_a4_proc_0 + 680 pi_d_a0_a5_proc_0
     + 680 pi_d_a0_a6_proc_0 + 680 pi_d_a0_a7_proc_0 + 680 pi_d_a0_a8_proc_0
     + 680 pi_d_a0_a9_proc_0 + 680 pi_d_a0_a11_proc_0 + 680 pi_d_a0_a12_proc_0
     + 680 pi_d_a0_a13_proc_0 + 680 pi_d_a0_a14_proc_0 + pi_y1_a0
     + pi_y2_a0_proc_0 >= 0
 c4: - pi_p_a0_a1 - pi_p_a2_a1 + pi_p_a1_a4 - pi_p_a6_a1 - pi_d_a0_a1_proc_0
     + pi_d_a1_a0_proc_0 + pi_d_a1_a2_proc_0 + pi_d_a1_a2_proc_1
     - pi_d_a2_a1_proc_0 - pi_d_a2_a1_proc_1 + pi_d_a1_a3_proc_0
     - pi_d_a3_a1_proc_0 + pi_d_a1_a4_proc_0 + pi_d_a1_a4_proc_1
     - pi_d_a4_a1_proc_0 - pi_d_a4_a1_proc_1 + pi_d_a1_a5_proc_0
     - pi_d_a5_a1_proc_0 + pi_d_a1_a6_proc_0 + pi_d_a1_a6_proc_1
     - pi_d_a6_a1_proc_0 - pi_d_a6_a1_proc_1 + pi_d_a1_a7_proc_0
     + pi_d_a1_a7_proc_1 - pi_d_a7_a1_proc_0 - pi_d_a7_a1_proc_1
     + pi_d_a1_a8_proc_0 + pi_d_a1_a8_proc_1 - pi_d_a8_a1_proc_0
     - pi_d_a8_a1_proc_1 + pi_d_a1_a9_proc_0 + pi_d_a1_a9_proc_1
     - pi_d_a9_a1_proc_0 - pi_d_a9_a1_proc_1 + pi_d_a1_a10_proc_1
     - pi_d_a10_a1_proc_1 + pi_d_a1_a11_proc_0 + pi_d_a1_a11_proc_1
     - pi_d_a11_a1_proc_0 - pi_d_a11_a1_proc_1 + pi_d_a1_a12_proc_0
     + pi_d_a1_a12_proc_1 - pi_d_a12_a1_proc_0 - pi_d_a12_a1_proc_1
     + pi_d_a1_a13_proc_0 + pi_d_a1_a13_proc_1 - pi_d_a13_a1_proc_0
     - pi_d_a13_a1_proc_1 + pi_d_a1_a14_proc_0 + pi_d_a1_a14_proc_1
     - pi_d_a14_a1_proc_0 - pi_d_a14_a1_proc_1 >= 0
 c5: 876 pi_p_a1_a4 + 876 pi_d_a1_a0_proc_0 + 876 pi_d_a1_a2_proc_0
     + 876 pi_d_a1_a3_proc_0 + 876 pi_d_a1_a4_proc_0 + 876 pi_d_a1_a5_proc_0
     + 876 pi_d_a1_a6_proc_0 + 876 pi_d_a1_a7_proc_0 + 876 pi_d_a1_a8_proc_0
     + 876 pi_d_a1_a9_proc_0 + 876 pi_d_a1_a11_proc_0 + 876 pi_d_a1_a12_proc_0
     + 876 pi_d_a1_a13_proc_0 + 876 pi_d_a1_a14_proc_0 + pi_y1_a1
     + pi_y2_a1_proc_0 >= 0
 c6: 1200 pi_p_a1_a4 + 1200 pi_d_a1_a2_proc_1 + 1200 pi_d_a1_a4_proc_1
     + 1200 pi_d_a1_a6_proc_1 + 1200 pi_d_a1_a7_proc_1 + 1200 pi_d_a1_a8_proc_1
     + 1200 pi_d_a1_a9_proc_1 + 1200 pi_d_a1_a10_proc_1
     + 1200 pi_d_a1_a11_proc_1 + 1200 pi_d_a1_a12_proc_1
     + 1200 pi_d_a1_a13_proc_1 + 1200 pi_d_a1_a14_proc_1 + pi_y1_a1
     + pi_y2_a1_proc_1 >= 0
 c7: pi_p_a2_a1 - pi_p_a11_a2 - pi_d_a0_a2_proc_0 + pi_d_a2_a0_proc_0
     - pi_d_a1_a2_proc_0 - pi_d_a1_a2_proc_1 + pi_d_a2_a1_proc_0
     + pi_d_a2_a1_proc_1 + pi_d_a2_a3_proc_0 - pi_d_a3_a2_proc_0
     + pi_d_a2_a4_proc_0 + pi_d_a2_a4_proc_1 - pi_d_a4_a2_proc_0
     - pi_d_a4_a2_proc_1 + pi_d_a2_a5_proc_0 - pi_d_a5_a2_proc_0
     + pi_d_a2_a6_proc_0 + pi_d_a2_a6_proc_1 - pi_d_a6_a2_proc_0
     - pi_d_a6_a2_proc_1 + pi_d_a2_a7_proc_0 + pi_d_a2_a7_proc_1
     - pi_d_a7_a2_proc_0 - pi_d_a7_a2_proc_1 + pi_d_a2_a8_proc_0
     + pi_d_a2_a8_proc_1 - pi_d_a8_a2_proc_0 - pi_d_a8_a2_proc_1
     + pi_d_a2_a9_proc_0 + pi_d_a2_a9_proc_1 - pi_d_a9_a2_proc_0
     - pi_d_a9_a2_proc_1 + pi_d_a2_a10_proc_1 - pi_d_a10_a2_proc_1
     + pi_d_a2_a11_proc_0 + pi_d_a2_a11_proc_1 - pi_d_a11_a2_proc_0
     - pi_d_a11_a2_proc_1 + pi_d_a2_a12_proc_0 + pi_d_a2_a12_proc_1
     - pi_d_a12_a2_proc_0 - pi_d_a12_a2_proc_1 + pi_d_a2_a13_proc_0
     + pi_d_a2_a13_proc_1 - pi_d_a13_a2_proc_0 - pi_d_a13_a2_proc_1
     + pi_d_a2_a14_proc_0 + pi_d_a2_a14_proc_1 - pi_d_a14_a2_proc_0
     - pi_d_a14_a2_proc_1 >= 0
 c8: 703 pi_p_a2_a1 + 703 pi_d_a2_a0_proc_0 + 703 pi_d_a2_a1_proc_0
     + 703 pi_d_a2_a3_proc_0 + 703 pi_d_a2_a4_proc_0 + 703 pi_d_a2_a5_proc_0
     + 703 pi_d_a2_a6_proc_0 + 703 pi_d_a2_a7_proc_0 + 703 pi_d_a2_a8_proc_0
     + 703 pi_d_a2_a9_proc_0 + 703 pi_d_a2_a11_proc_0 + 703 pi_d_a2_a12_proc_0
     + 703 pi_d_a2_a13_proc_0 + 703 pi_d_a2_a14_proc_0 + pi_y1_a2
     + pi_y2_a2_proc_0 >= 0
 c9: 666 pi_p_a2_a1 + 666 pi_d_a2_a1_proc_1 + 666 pi_d_a2_a4_proc_1
     + 666 pi_d_a2_a6_proc_1 + 666 pi_d_a2_a7_proc_1 + 666 pi_d_a2_a8_proc_1
     + 666 pi_d_a2_a9_proc_1 + 666 pi_d_a2_a10_proc_1 + 666 pi_d_a2_a11_proc_1
     + 666 pi_d_a2_a12_proc_1 + 666 pi_d_a2_a13_proc_1 + 666 pi_d_a2_a14_proc_1
     + pi_y1_a2 + pi_y2_a2_proc_1 >= 0
 c10: pi_p_a3_a0 - pi_p_a7_a3 - pi_p_a11_a3 - pi_d_a0_a3_proc_0
      + pi_d_a3_a0_proc_0 - pi_d_a1_a3_proc_0 + pi_d_a3_a1_proc_0
      - pi_d_a2_a3_proc_0 + pi_d_a3_a2_proc_0 + pi_d_a3_a4_proc_0
      - pi_d_a4_a3_proc_0 + pi_d_a3_a5_proc_0 - pi_d_a5_a3_proc_0
      + pi_d_a3_a6_proc_0 - pi_d_a6_a3_proc_0 + pi_d_a3_a7_proc_0
      - pi_d_a7_a3_proc_0 + pi_d_a3_a8_proc_0 - pi_d_a8_a3_proc_0
      + pi_d_a3_a9_proc_0 - pi_d_a9_a3_proc_0 + pi_d_a3_a11_proc_0
      - pi_d_a11_a3_proc_0 + pi_d_a3_a12_proc_0 - pi_d_a12_a3_proc_0
      + pi_d_a3_a13_proc_0 - pi_d_a13_a3_proc_0 + pi_d_a3_a14_proc_0
      - pi_d_a14_a3_proc_0 >= 0
 c11: 1192 pi_p_a3_a0 + 1192 pi_d_a3_a0_proc_0 + 1192 pi_d_a3_a1_proc_0
      + 1192 pi_d_a3_a2_proc_0 + 1192 pi_d_a3_a4_proc_0 + 1192 pi_d_a3_a5_proc_0
      + 1192 pi_d_a3_a6_proc_0 + 1192 pi_d_a3_a7_proc_0 + 1192 pi_d_a3_a8_proc_0
      + 1192 pi_d_a3_a9_proc_0 + 1192 pi_d_a3_a11_proc_0
      + 1192 pi_d_a3_a12_proc_0 + 1192 pi_d_a3_a13_proc_0
      + 1192 pi_d_a3_a14_proc_0 + pi_y1_a3 + pi_y2_a3_proc_0 >= 0
 c12: - pi_p_a1_a4 + pi_p_a4_a5 - pi_d_a0_a4_proc_0 + pi_d_a4_a0_proc_0
      - pi_d_a1_a4_proc_0 - pi_d_a1_a4_proc_1 + pi_d_a4_a1_proc_0
      + pi_d_a4_a1_proc_1 - pi_d_a2_a4_proc_0 - pi_d_a2_a4_proc_1
      + pi_d_a4_a2_proc_0 + pi_d_a4_a2_proc_1 - pi_d_a3_a4_proc_0
      + pi_d_a4_a3_proc_0 + pi_d_a4_a5_proc_0 - pi_d_a5_a4_proc_0
      + pi_d_a4_a6_proc_0 + pi_d_a4_a6_proc_1 - pi_d_a6_a4_proc_0
      - pi_d_a6_a4_proc_1 + pi_d_a4_a7_proc_0 + pi_d_a4_a7_proc_1
      - pi_d_a7_a4_proc_0 - pi_d_a7_a4_proc_1 + pi_d_a4_a8_proc_0
      + pi_d_a4_a8_proc_1 - pi_d_a8_a4_proc_0 - pi_d_a8_a4_proc_1
      + pi_d_a4_a9_proc_0 + pi_d_a4_a9_proc_1 - pi_d_a9_a4_proc_0
      - pi_d_a9_a4_proc_1 + pi_d_a4_a10_proc_1 - pi_d_a10_a4_proc_1
      + pi_d_a4_a11_proc_0 + pi_d_a4_a11_proc_1 - pi_d_a11_a4_proc_0
      - pi_d_a11_a4_proc_1 + pi_d_a4_a12_proc_0 + pi_d_a4_a12_proc_1
      - pi_d_a12_a4_proc_0 - pi_d_a12_a4_proc_1 + pi_d_a4_a13_proc_0
      + pi_d_a4_a13_proc_1 - pi_d_a13_a4_proc_0 - pi_d_a13_a4_proc_1
      + pi_d_a4_a14_proc_0 + pi_d_a4_a14_proc_1 - pi_d_a14_a4_proc_0
      - pi_d_a14_a4_proc_1 >= 0
 c13: 1077 pi_p_a4_a5 + 1077 pi_d_a4_a0_proc_0 + 1077 pi_d_a4_a1_proc_0
      + 1077 pi_d_a4_a2_proc_0 + 1077 pi_d_a4_a3_proc_0 + 1077 pi_d_a4_a5_proc_0
      + 1077 pi_d_a4_a6_proc_0 + 1077 pi_d_a4_a7_proc_0 + 1077 pi_d_a4_a8_proc_0
      + 1077 pi_d_a4_a9_proc_0 + 1077 pi_d_a4_a11_proc_0
      + 1077 pi_d_a4_a12_proc_0 + 1077 pi_d_a4_a13_proc_0
      + 1077 pi_d_a4_a14_proc_0 + pi_y1_a4 + pi_y2_a4_proc_0 >= 0
 c14: 646 pi_p_a4_a5 + 646 pi_d_a4_a1_proc_1 + 646 pi_d_a4_a2_proc_1
      + 646 pi_d_a4_a6_proc_1 + 646 pi_d_a4_a7_proc_1 + 646 pi_d_a4_a8_proc_1
      + 646 pi_d_a4_a9_proc_1 + 646 pi_d_a4_a10_proc_1 + 646 pi_d_a4_a11_proc_1
      + 646 pi_d_a4_a12_proc_1 + 646 pi_d_a4_a13_proc_1 + 646 pi_d_a4_a14_proc_1
      + pi_y1_a4 + pi_y2_a4_proc_1 >= 0
 c15: - pi_p_a4_a5 + pi_p_a5_a11 + pi_p_a5_a13 - pi_d_a0_a5_proc_0
      + pi_d_a5_a0_proc_0 - pi_d_a1_a5_proc_0 + pi_d_a5_a1_proc_0
      - pi_d_a2_a5_proc_0 + pi_d_a5_a2_proc_0 - pi_d_a3_a5_proc_0
      + pi_d_a5_a3_proc_0 - pi_d_a4_a5_proc_0 + pi_d_a5_a4_proc_0
      + pi_d_a5_a6_proc_0 - pi_d_a6_a5_proc_0 + pi_d_a5_a7_proc_0
      - pi_d_a7_a5_proc_0 + pi_d_a5_a8_proc_0 - pi_d_a8_a5_proc_0
      + pi_d_a5_a9_proc_0 - pi_d_a9_a5_proc_0 + pi_d_a5_a11_proc_0
      - pi_d_a11_a5_proc_0 + pi_d_a5_a12_proc_0 - pi_d_a12_a5_proc_0
      + pi_d_a5_a13_proc_0 - pi_d_a13_a5_proc_0 + pi_d_a5_a14_proc_0
      - pi_d_a14_a5_proc_0 >= 0
 c16: 763 pi_p_a5_a11 + 763 pi_p_a5_a13 + 763 pi_d_a5_a0_proc_0
      + 763 pi_d_a5_a1_proc_0 + 763 pi_d_a5_a2_proc_0 + 763 pi_d_a5_a3_proc_0
      + 763 pi_d_a5_a4_proc_0 + 763 pi_d_a5_a6_proc_0 + 763 pi_d_a5_a7_proc_0
      + 763 pi_d_a5_a8_proc_0 + 763 pi_d_a5_a9_proc_0 + 763 pi_d_a5_a11_proc_0
      + 763 pi_d_a5_a12_proc_0 + 763 pi_d_a5_a13_proc_0 + 763 pi_d_a5_a14_proc_0
      + pi_y1_a5 + pi_y2_a5_proc_0 >= 0
 c17: pi_p_a6_a1 + pi_p_a6_a7 + pi_p_a6_a8 - pi_p_a13_a6 - pi_d_a0_a6_proc_0
      + pi_d_a6_a0_proc_0 - pi_d_a1_a6_proc_0 - pi_d_a1_a6_proc_1
      + pi_d_a6_a1_proc_0 + pi_d_a6_a1_proc_1 - pi_d_a2_a6_proc_0
      - pi_d_a2_a6_proc_1 + pi_d_a6_a2_proc_0 + pi_d_a6_a2_proc_1
      - pi_d_a3_a6_proc_0 + pi_d_a6_a3_proc_0 - pi_d_a4_a6_proc_0
      - pi_d_a4_a6_proc_1 + pi_d_a6_a4_proc_0 + pi_d_a6_a4_proc_1
      - pi_d_a5_a6_proc_0 + pi_d_a6_a5_proc_0 + pi_d_a6_a7_proc_0
      + pi_d_a6_a7_proc_1 - pi_d_a7_a6_proc_0 - pi_d_a7_a6_proc_1
      + pi_d_a6_a8_proc_0 + pi_d_a6_a8_proc_1 - pi_d_a8_a6_proc_0
      - pi_d_a8_a6_proc_1 + pi_d_a6_a9_proc_0 + pi_d_a6_a9_proc_1
      - pi_d_a9_a6_proc_0 - pi_d_a9_a6_proc_1 + pi_d_a6_a10_proc_1
      - pi_d_a10_a6_proc_1 + pi_d_a6_a11_proc_0 + pi_d_a6_a11_proc_1
      - pi_d_a11_a6_proc_0 - pi_d_a11_a6_proc_1 + pi_d_a6_a12_proc_0
      + pi_d_a6_a12_proc_1 - pi_d_a12_a6_proc_0 - pi_d_a12_a6_proc_1
      + pi_d_a6_a13_proc_0 + pi_d_a6_a13_proc_1 - pi_d_a13_a6_proc_0
      - pi_d_a13_a6_proc_1 + pi_d_a6_a14_proc_0 + pi_d_a6_a14_proc_1
      - pi_d_a14_a6_proc_0 - pi_d_a14_a6_proc_1 >= 0
 c18: 1010 pi_p_a6_a1 + 1010 pi_p_a6_a7 + 1010 pi_p_a6_a8
      + 1010 pi_d_a6_a0_proc_0 + 1010 pi_d_a6_a1_proc_0 + 1010 pi_d_a6_a2_proc_0
      + 1010 pi_d_a6_a3_proc_0 + 1010 pi_d_a6_a4_proc_0 + 1010 pi_d_a6_a5_proc_0
      + 1010 pi_d_a6_a7_proc_0 + 1010 pi_d_a6_a8_proc_0 + 1010 pi_d_a6_a9_proc_0
      + 1010 pi_d_a6_a11_proc_0 + 1010 pi_d_a6_a12_proc_0
      + 1010 pi_d_a6_a13_proc_0 + 1010 pi_d_a6_a14_proc_0 + pi_y1_a6
      + pi_y2_a6_proc_0 >= 0
 c19: 1088 pi_p_a6_a1 + 1088 pi_p_a6_a7 + 1088 pi_p_a6_a8
      + 1088 pi_d_a6_a1_proc_1 + 1088 pi_d_a6_a2_proc_1 + 1088 pi_d_a6_a4_proc_1
      + 1088 pi_d_a6_a7_proc_1 + 1088 pi_d_a6_a8_proc_1 + 1088 pi_d_a6_a9_proc_1
      + 1088 pi_d_a6_a10_proc_1 + 1088 pi_d_a6_a11_proc_1
      + 1088 pi_d_a6_a12_proc_1 + 1088 pi_d_a6_a13_proc_1
      + 1088 pi_d_a6_a14_proc_1 + pi_y1_a6 + pi_y2_a6_proc_1 >= 0
 c20: - pi_p_a6_a7 + pi_p_a7_a3 + pi_p_a7_a0 - pi_d_a0_a7_proc_0
      + pi_d_a7_a0_proc_0 - pi_d_a1_a7_proc_0 - pi_d_a1_a7_proc_1
      + pi_d_a7_a1_proc_0 + pi_d_a7_a1_proc_1 - pi_d_a2_a7_proc_0
      - pi_d_a2_a7_proc_1 + pi_d_a7_a2_proc_0 + pi_d_a7_a2_proc_1
      - pi_d_a3_a7_proc_0 + pi_d_a7_a3_proc_0 - pi_d_a4_a7_proc_0
      - pi_d_a4_a7_proc_1 + pi_d_a7_a4_proc_0 + pi_d_a7_a4_proc_1
      - pi_d_a5_a7_proc_0 + pi_d_a7_a5_proc_0 - pi_d_a6_a7_proc_0
      - pi_d_a6_a7_proc_1 + pi_d_a7_a6_proc_0 + pi_d_a7_a6_proc_1
      + pi_d_a7_a8_proc_0 + pi_d_a7_a8_proc_1 - pi_d_a8_a7_proc_0
      - pi_d_a8_a7_proc_1 + pi_d_a7_a9_proc_0 + pi_d_a7_a9_proc_1
      - pi_d_a9_a7_proc_0 - pi_d_a9_a7_proc_1 + pi_d_a7_a10_proc_1
      - pi_d_a10_a7_proc_1 + pi_d_a7_a11_proc_0 + pi_d_a7_a11_proc_1
      - pi_d_a11_a7_proc_0 - pi_d_a11_a7_proc_1 + pi_d_a7_a12_proc_0
      + pi_d_a7_a12_proc_1 - pi_d_a12_a7_proc_0 - pi_d_a12_a7_proc_1
      + pi_d_a7_a13_proc_0 + pi_d_a7_a13_proc_1 - pi_d_a13_a7_proc_0
      - pi_d_a13_a7_proc_1 + pi_d_a7_a14_proc_0 + pi_d_a7_a14_proc_1
      - pi_d_a14_a7_proc_0 - pi_d_a14_a7_proc_1 >= 0
 c21: 888 pi_p_a7_a3 + 888 pi_p_a7_a0 + 888 pi_d_a7_a0_proc_0
      + 888 pi_d_a7_a1_proc_0 + 888 pi_d_a7_a2_proc_0 + 888 pi_d_a7_a3_proc_0
      + 888 pi_d_a7_a4_proc_0 + 888 pi_d_a7_a5_proc_0 + 888 pi_d_a7_a6_proc_0
      + 888 pi_d_a7_a8_proc_0 + 888 pi_d_a7_a9_proc_0 + 888 pi_d_a7_a11_proc_0
      + 888 pi_d_a7_a12_proc_0 + 888 pi_d_a7_a13_proc_0 + 888 pi_d_a7_a14_proc_0
      + pi_y1_a7 + pi_y2_a7_proc_0 >= 0
 c22: 773 pi_p_a7_a3 + 773 pi_p_a7_a0 + 773 pi_d_a7_a1_proc_1
      + 773 pi_d_a7_a2_proc_1 + 773 pi_d_a7_a4_proc_1 + 773 pi_d_a7_a6_proc_1
      + 773 pi_d_a7_a8_proc_1 + 773 pi_d_a7_a9_proc_1 + 773 pi_d_a7_a10_proc_1
      + 773 pi_d_a7_a11_proc_1 + 773 pi_d_a7_a12_proc_1 + 773 pi_d_a7_a13_proc_1
      + 773 pi_d_a7_a14_proc_1 + pi_y1_a7 + pi_y2_a7_proc_1 >= 0
 c23: - pi_p_a6_a8 + pi_p_a8_a9 - pi_p_a12_a8 + pi_p_a8_a11 + pi_p_a8_a10
      - pi_d_a0_a8_proc_0 + pi_d_a8_a0_proc_0 - pi_d_a1_a8_proc_0
      - pi_d_a1_a8_proc_1 + pi_d_a8_a1_proc_0 + pi_d_a8_a1_proc_1
      - pi_d_a2_a8_proc_0 - pi_d_a2_a8_proc_1 + pi_d_a8_a2_proc_0
      + pi_d_a8_a2_proc_1 - pi_d_a3_a8_proc_0 + pi_d_a8_a3_proc_0
      - pi_d_a4_a8_proc_0 - pi_d_a4_a8_proc_1 + pi_d_a8_a4_proc_0
      + pi_d_a8_a4_proc_1 - pi_d_a5_a8_proc_0 + pi_d_a8_a5_proc_0
      - pi_d_a6_a8_proc_0 - pi_d_a6_a8_proc_1 + pi_d_a8_a6_proc_0
      + pi_d_a8_a6_proc_1 - pi_d_a7_a8_proc_0 - pi_d_a7_a8_proc_1
      + pi_d_a8_a7_proc_0 + pi_d_a8_a7_proc_1 + pi_d_a8_a9_proc_0
      + pi_d_a8_a9_proc_1 - pi_d_a9_a8_proc_0 - pi_d_a9_a8_proc_1
      + pi_d_a8_a10_proc_1 - pi_d_a10_a8_proc_1 + pi_d_a8_a11_proc_0
      + pi_d_a8_a11_proc_1 - pi_d_a11_a8_proc_0 - pi_d_a11_a8_proc_1
      + pi_d_a8_a12_proc_0 + pi_d_a8_a12_proc_1 - pi_d_a12_a8_proc_0
      - pi_d_a12_a8_proc_1 + pi_d_a8_a13_proc_0 + pi_d_a8_a13_proc_1
      - pi_d_a13_a8_proc_0 - pi_d_a13_a8_proc_1 + pi_d_a8_a14_proc_0
      + pi_d_a8_a14_proc_1 - pi_d_a14_a8_proc_0 - pi_d_a14_a8_proc_1 >= 0
 c24: 870 pi_p_a8_a9 + 870 pi_p_a8_a11 + 870 pi_p_a8_a10 + 870 pi_d_a8_a0_proc_0
      + 870 pi_d_a8_a1_proc_0 + 870 pi_d_a8_a2_proc_0 + 870 pi_d_a8_a3_proc_0
      + 870 pi_d_a8_a4_proc_0 + 870 pi_d_a8_a5_proc_0 + 870 pi_d_a8_a6_proc_0
      + 870 pi_d_a8_a7_proc_0 + 870 pi_d_a8_a9_proc_0 + 870 pi_d_a8_a11_proc_0
      + 870 pi_d_a8_a12_proc_0 + 870 pi_d_a8_a13_proc_0 + 870 pi_d_a8_a14_proc_0
      + pi_y1_a8 + pi_y2_a8_proc_0 >= 0
 c25: 1296 pi_p_a8_a9 + 1296 pi_p_a8_a11 + 1296 pi_p_a8_a10
      + 1296 pi_d_a8_a1_proc_1 + 1296 pi_d_a8_a2_proc_1 + 1296 pi_d_a8_a4_proc_1
      + 1296 pi_d_a8_a6_proc_1 + 1296 pi_d_a8_a7_proc_1 + 1296 pi_d_a8_a9_proc_1
      + 1296 pi_d_a8_a10_proc_1 + 1296 pi_d_a8_a11_proc_1
      + 1296 pi_d_a8_a12_proc_1 + 1296 pi_d_a8_a13_proc_1
      + 1296 pi_d_a8_a14_proc_1 + pi_y1_a8 + pi_y2_a8_proc_1 >= 0
 c26: - pi_p_a8_a9 - pi_p_a10_a9 + pi_p_a9_a0 - pi_p_a14_a9 + pi_p_a9_a14
      - pi_d_a0_a9_proc_0 + pi_d_a9_a0_proc_0 - pi_d_a1_a9_proc_0
      - pi_d_a1_a9_proc_1 + pi_d_a9_a1_proc_0 + pi_d_a9_a1_proc_1
      - pi_d_a2_a9_proc_0 - pi_d_a2_a9_proc_1 + pi_d_a9_a2_proc_0
      + pi_d_a9_a2_proc_1 - pi_d_a3_a9_proc_0 + pi_d_a9_a3_proc_0
      - pi_d_a4_a9_proc_0 - pi_d_a4_a9_proc_1 + pi_d_a9_a4_proc_0
      + pi_d_a9_a4_proc_1 - pi_d_a5_a9_proc_0 + pi_d_a9_a5_proc_0
      - pi_d_a6_a9_proc_0 - pi_d_a6_a9_proc_1 + pi_d_a9_a6_proc_0
      + pi_d_a9_a6_proc_1 - pi_d_a7_a9_proc_0 - pi_d_a7_a9_proc_1
      + pi_d_a9_a7_proc_0 + pi_d_a9_a7_proc_1 - pi_d_a8_a9_proc_0
      - pi_d_a8_a9_proc_1 + pi_d_a9_a8_proc_0 + pi_d_a9_a8_proc_1
      + pi_d_a9_a10_proc_1 - pi_d_a10_a9_proc_1 + pi_d_a9_a11_proc_0
      + pi_d_a9_a11_proc_1 - pi_d_a11_a9_proc_0 - pi_d_a11_a9_proc_1
      + pi_d_a9_a12_proc_0 + pi_d_a9_a12_proc_1 - pi_d_a12_a9_proc_0
      - pi_d_a12_a9_proc_1 + pi_d_a9_a13_proc_0 + pi_d_a9_a13_proc_1
      - pi_d_a13_a9_proc_0 - pi_d_a13_a9_proc_1 + pi_d_a9_a14_proc_0
      + pi_d_a9_a14_proc_1 - pi_d_a14_a9_proc_0 - pi_d_a14_a9_proc_1 >= 0
 c27: 1013 pi_p_a9_a0 + 1013 pi_p_a9_a14 + 1013 pi_d_a9_a0_proc_0
      + 1013 pi_d_a9_a1_proc_0 + 1013 pi_d_a9_a2_proc_0 + 1013 pi_d_a9_a3_proc_0
      + 1013 pi_d_a9_a4_proc_0 + 1013 pi_d_a9_a5_proc_0 + 1013 pi_d_a9_a6_proc_0
      + 1013 pi_d_a9_a7_proc_0 + 1013 pi_d_a9_a8_proc_0
      + 1013 pi_d_a9_a11_proc_0 + 1013 pi_d_a9_a12_proc_0
      + 1013 pi_d_a9_a13_proc_0 + 1013 pi_d_a9_a14_proc_0 + pi_y1_a9
      + pi_y2_a9_proc_0 >= 0
 c28: 657 pi_p_a9_a0 + 657 pi_p_a9_a14 + 657 pi_d_a9_a1_proc_1
      + 657 pi_d_a9_a2_proc_1 + 657 pi_d_a9_a4_proc_1 + 657 pi_d_a9_a6_proc_1
      + 657 pi_d_a9_a7_proc_1 + 657 pi_d_a9_a8_proc_1 + 657 pi_d_a9_a10_proc_1
      + 657 pi_d_a9_a11_proc_1 + 657 pi_d_a9_a12_proc_1 + 657 pi_d_a9_a13_proc_1
      + 657 pi_d_a9_a14_proc_1 + pi_y1_a9 + pi_y2_a9_proc_1 >= 0
 c29: pi_p_a10_a9 - pi_p_a8_a10 - pi_d_a1_a10_proc_1 + pi_d_a10_a1_proc_1
      - pi_d_a2_a10_proc_1 + pi_d_a10_a2_proc_1 - pi_d_a4_a10_proc_1
      + pi_d_a10_a4_proc_1 - pi_d_a6_a10_proc_1 + pi_d_a10_a6_proc_1
      - pi_d_a7_a10_proc_1 + pi_d_a10_a7_proc_1 - pi_d_a8_a10_proc_1
      + pi_d_a10_a8_proc_1 - pi_d_a9_a10_proc_1 + pi_d_a10_a9_proc_1
      + pi_d_a10_a11_proc_1 - pi_d_a11_a10_proc_1 + pi_d_a10_a12_proc_1
      - pi_d_a12_a10_proc_1 + pi_d_a10_a13_proc_1 - pi_d_a13_a10_proc_1
      + pi_d_a10_a14_proc_1 - pi_d_a14_a10_proc_1 >= 0
 c30: 801 pi_p_a10_a9 + 801 pi_d_a10_a1_proc_1 + 801 pi_d_a10_a2_proc_1
      + 801 pi_d_a10_a4_proc_1 + 801 pi_d_a10_a6_proc_1 + 801 pi_d_a10_a7_proc_1
      + 801 pi_d_a10_a8_proc_1 + 801 pi_d_a10_a9_proc_1
      + 801 pi_d_a10_a11_proc_1 + 801 pi_d_a10_a12_proc_1
      + 801 pi_d_a10_a13_proc_1 + 801 pi_d_a10_a14_proc_1 + pi_y1_a10
      + pi_y2_a10_proc_1 >= 0
 c31: pi_p_a11_a2 - pi_p_a14_a11 - pi_p_a5_a11 - pi_p_a8_a11 + pi_p_a11_a3
      + pi_p_a11_a14 - pi_d_a0_a11_proc_0 + pi_d_a11_a0_proc_0
      - pi_d_a1_a11_proc_0 - pi_d_a1_a11_proc_1 + pi_d_a11_a1_proc_0
      + pi_d_a11_a1_proc_1 - pi_d_a2_a11_proc_0 - pi_d_a2_a11_proc_1
      + pi_d_a11_a2_proc_0 + pi_d_a11_a2_proc_1 - pi_d_a3_a11_proc_0
      + pi_d_a11_a3_proc_0 - pi_d_a4_a11_proc_0 - pi_d_a4_a11_proc_1
      + pi_d_a11_a4_proc_0 + pi_d_a11_a4_proc_1 - pi_d_a5_a11_proc_0
      + pi_d_a11_a5_proc_0 - pi_d_a6_a11_proc_0 - pi_d_a6_a11_proc_1
      + pi_d_a11_a6_proc_0 + pi_d_a11_a6_proc_1 - pi_d_a7_a11_proc_0
      - pi_d_a7_a11_proc_1 + pi_d_a11_a7_proc_0 + pi_d_a11_a7_proc_1
      - pi_d_a8_a11_proc_0 - pi_d_a8_a11_proc_1 + pi_d_a11_a8_proc_0
      + pi_d_a11_a8_proc_1 - pi_d_a9_a11_proc_0 - pi_d_a9_a11_proc_1
      + pi_d_a11_a9_proc_0 + pi_d_a11_a9_proc_1 - pi_d_a10_a11_proc_1
      + pi_d_a11_a10_proc_1 + pi_d_a11_a12_proc_0 + pi_d_a11_a12_proc_1
      - pi_d_a12_a11_proc_0 - pi_d_a12_a11_proc_1 + pi_d_a11_a13_proc_0
      + pi_d_a11_a13_proc_1 - pi_d_a13_a11_proc_0 - pi_d_a13_a11_proc_1
      + pi_d_a11_a14_proc_0 + pi_d_a11_a14_proc_1 - pi_d_a14_a11_proc_0
      - pi_d_a14_a11_proc_1 >= 0
 c32: 970 pi_p_a11_a2 + 970 pi_p_a11_a3 + 970 pi_p_a11_a14
      + 970 pi_d_a11_a0_proc_0 + 970 pi_d_a11_a1_proc_0 + 970 pi_d_a11_a2_proc_0
      + 970 pi_d_a11_a3_proc_0 + 970 pi_d_a11_a4_proc_0 + 970 pi_d_a11_a5_proc_0
      + 970 pi_d_a11_a6_proc_0 + 970 pi_d_a11_a7_proc_0 + 970 pi_d_a11_a8_proc_0
      + 970 pi_d_a11_a9_proc_0 + 970 pi_d_a11_a12_proc_0
      + 970 pi_d_a11_a13_proc_0 + 970 pi_d_a11_a14_proc_0 + pi_y1_a11
      + pi_y2_a11_proc_0 >= 0
 c33: 906 pi_p_a11_a2 + 906 pi_p_a11_a3 + 906 pi_p_a11_a14
      + 906 pi_d_a11_a1_proc_1 + 906 pi_d_a11_a2_proc_1 + 906 pi_d_a11_a4_proc_1
      + 906 pi_d_a11_a6_proc_1 + 906 pi_d_a11_a7_proc_1 + 906 pi_d_a11_a8_proc_1
      + 906 pi_d_a11_a9_proc_1 + 906 pi_d_a11_a10_proc_1
      + 906 pi_d_a11_a12_proc_1 + 906 pi_d_a11_a13_proc_1
      + 906 pi_d_a11_a14_proc_1 + pi_y1_a11 + pi_y2_a11_proc_1 >= 0
 c34: pi_p_a12_a8 - pi_p_a14_a12 - pi_d_a0_a12_proc_0 + pi_d_a12_a0_proc_0
      - pi_d_a1_a12_proc_0 - pi_d_a1_a12_proc_1 + pi_d_a12_a1_proc_0
      + pi_d_a12_a1_proc_1 - pi_d_a2_a12_proc_0 - pi_d_a2_a12_proc_1
      + pi_d_a12_a2_proc_0 + pi_d_a12_a2_proc_1 - pi_d_a3_a12_proc_0
      + pi_d_a12_a3_proc_0 - pi_d_a4_a12_proc_0 - pi_d_a4_a12_proc_1
      + pi_d_a12_a4_proc_0 + pi_d_a12_a4_proc_1 - pi_d_a5_a12_proc_0
      + pi_d_a12_a5_proc_0 - pi_d_a6_a12_proc_0 - pi_d_a6_a12_proc_1
      + pi_d_a12_a6_proc_0 + pi_d_a12_a6_proc_1 - pi_d_a7_a12_proc_0
      - pi_d_a7_a12_proc_1 + pi_d_a12_a7_proc_0 + pi_d_a12_a7_proc_1
      - pi_d_a8_a12_proc_0 - pi_d_a8_a12_proc_1 + pi_d_a12_a8_proc_0
      + pi_d_a12_a8_proc_1 - pi_d_a9_a12_proc_0 - pi_d_a9_a12_proc_1
      + pi_d_a12_a9_proc_0 + pi_d_a12_a9_proc_1 - pi_d_a10_a12_proc_1
      + pi_d_a12_a10_proc_1 - pi_d_a11_a12_proc_0 - pi_d_a11_a12_proc_1
      + pi_d_a12_a11_proc_0 + pi_d_a12_a11_proc_1 + pi_d_a12_a13_proc_0
      + pi_d_a12_a13_proc_1 - pi_d_a13_a12_proc_0 - pi_d_a13_a12_proc_1
      + pi_d_a12_a14_proc_0 + pi_d_a12_a14_proc_1 - pi_d_a14_a12_proc_0
      - pi_d_a14_a12_proc_1 >= 0
 c35: 1266 pi_p_a12_a8 + 1266 pi_d_a12_a0_proc_0 + 1266 pi_d_a12_a1_proc_0
      + 1266 pi_d_a12_a2_proc_0 + 1266 pi_d_a12_a3_proc_0
      + 1266 pi_d_a12_a4_proc_0 + 1266 pi_d_a12_a5_proc_0
      + 1266 pi_d_a12_a6_proc_0 + 1266 pi_d_a12_a7_proc_0
      + 1266 pi_d_a12_a8_proc_0 + 1266 pi_d_a12_a9_proc_0
      + 1266 pi_d_a12_a11_proc_0 + 1266 pi_d_a12_a13_proc_0
      + 1266 pi_d_a12_a14_proc_0 + pi_y1_a12 + pi_y2_a12_proc_0 >= 0
 c36: 928 pi_p_a12_a8 + 928 pi_d_a12_a1_proc_1 + 928 pi_d_a12_a2_proc_1
      + 928 pi_d_a12_a4_proc_1 + 928 pi_d_a12_a6_proc_1 + 928 pi_d_a12_a7_proc_1
      + 928 pi_d_a12_a8_proc_1 + 928 pi_d_a12_a9_proc_1
      + 928 pi_d_a12_a10_proc_1 + 928 pi_d_a12_a11_proc_1
      + 928 pi_d_a12_a13_proc_1 + 928 pi_d_a12_a14_proc_1 + pi_y1_a12
      + pi_y2_a12_proc_1 >= 0
 c37: pi_p_a13_a6 - pi_p_a5_a13 - pi_d_a0_a13_proc_0 + pi_d_a13_a0_proc_0
      - pi_d_a1_a13_proc_0 - pi_d_a1_a13_proc_1 + pi_d_a13_a1_proc_0
      + pi_d_a13_a1_proc_1 - pi_d_a2_a13_proc_0 - pi_d_a2_a13_proc_1
      + pi_d_a13_a2_proc_0 + pi_d_a13_a2_proc_1 - pi_d_a3_a13_proc_0
      + pi_d_a13_a3_proc_0 - pi_d_a4_a13_proc_0 - pi_d_a4_a13_proc_1
      + pi_d_a13_a4_proc_0 + pi_d_a13_a4_proc_1 - pi_d_a5_a13_proc_0
      + pi_d_a13_a5_proc_0 - pi_d_a6_a13_proc_0 - pi_d_a6_a13_proc_1
      + pi_d_a13_a6_proc_0 + pi_d_a13_a6_proc_1 - pi_d_a7_a13_proc_0
      - pi_d_a7_a13_proc_1 + pi_d_a13_a7_proc_0 + pi_d_a13_a7_proc_1
      - pi_d_a8_a13_proc_0 - pi_d_a8_a13_proc_1 + pi_d_a13_a8_proc_0
      + pi_d_a13_a8_proc_1 - pi_d_a9_a13_proc_0 - pi_d_a9_a13_proc_1
      + pi_d_a13_a9_proc_0 + pi_d_a13_a9_proc_1 - pi_d_a10_a13_proc_1
      + pi_d_a13_a10_proc_1 - pi_d_a11_a13_proc_0 - pi_d_a11_a13_proc_1
      + pi_d_a13_a11_proc_0 + pi_d_a13_a11_proc_1 - pi_d_a12_a13_proc_0
      - pi_d_a12_a13_proc_1 + pi_d_a13_a12_proc_0 + pi_d_a13_a12_proc_1
      + pi_d_a13_a14_proc_0 + pi_d_a13_a14_proc_1 - pi_d_a14_a13_proc_0
      - pi_d_a14_a13_proc_1 >= 0
 c38: 1083 pi_p_a13_a6 + 1083 pi_p_a13_a13 + 1083 pi_d_a13_a0_proc_0
      + 1083 pi_d_a13_a1_proc_0 + 1083 pi_d_a13_a2_proc_0
      + 1083 pi_d_a13_a3_proc_0 + 1083 pi_d_a13_a4_proc_0
      + 1083 pi_d_a13_a5_proc_0 + 1083 pi_d_a13_a6_proc_0
      + 1083 pi_d_a13_a7_proc_0 + 1083 pi_d_a13_a8_proc_0
      + 1083 pi_d_a13_a9_proc_0 + 1083 pi_d_a13_a11_proc_0
      + 1083 pi_d_a13_a12_proc_0 + 1083 pi_d_a13_a14_proc_0 + pi_y1_a13
      + pi_y2_a13_proc_0 >= 0
 c39: 736 pi_p_a13_a6 + 736 pi_p_a13_a13 + 736 pi_d_a13_a1_proc_1
      + 736 pi_d_a13_a2_proc_1 + 736 pi_d_a13_a4_proc_1 + 736 pi_d_a13_a6_proc_1
      + 736 pi_d_a13_a7_proc_1 + 736 pi_d_a13_a8_proc_1 + 736 pi_d_a13_a9_proc_1
      + 736 pi_d_a13_a10_proc_1 + 736 pi_d_a13_a11_proc_1
      + 736 pi_d_a13_a12_proc_1 + 736 pi_d_a13_a14_proc_1 + pi_y1_a13
      + pi_y2_a13_proc_1 >= 0
 c40: pi_p_a14_a11 + pi_p_a14_a9 - pi_p_a9_a14 + pi_p_a14_a12 - pi_p_a11_a14
      - pi_d_a0_a14_proc_0 + pi_d_a14_a0_proc_0 - pi_d_a1_a14_proc_0
      - pi_d_a1_a14_proc_1 + pi_d_a14_a1_proc_0 + pi_d_a14_a1_proc_1
      - pi_d_a2_a14_proc_0 - pi_d_a2_a14_proc_1 + pi_d_a14_a2_proc_0
      + pi_d_a14_a2_proc_1 - pi_d_a3_a14_proc_0 + pi_d_a14_a3_proc_0
      - pi_d_a4_a14_proc_0 - pi_d_a4_a14_proc_1 + pi_d_a14_a4_proc_0
      + pi_d_a14_a4_proc_1 - pi_d_a5_a14_proc_0 + pi_d_a14_a5_proc_0
      - pi_d_a6_a14_proc_0 - pi_d_a6_a14_proc_1 + pi_d_a14_a6_proc_0
      + pi_d_a14_a6_proc_1 - pi_d_a7_a14_proc_0 - pi_d_a7_a14_proc_1
      + pi_d_a14_a7_proc_0 + pi_d_a14_a7_proc_1 - pi_d_a8_a14_proc_0
      - pi_d_a8_a14_proc_1 + pi_d_a14_a8_proc_0 + pi_d_a14_a8_proc_1
      - pi_d_a9_a14_proc_0 - pi_d_a9_a14_proc_1 + pi_d_a14_a9_proc_0
      + pi_d_a14_a9_proc_1 - pi_d_a10_a14_proc_1 + pi_d_a14_a10_proc_1
      - pi_d_a11_a14_proc_0 - pi_d_a11_a14_proc_1 + pi_d_a14_a11_proc_0
      + pi_d_a14_a11_proc_1 - pi_d_a12_a14_proc_0 - pi_d_a12_a14_proc_1
      + pi_d_a14_a12_proc_0 + pi_d_a14_a12_proc_1 - pi_d_a13_a14_proc_0
      - pi_d_a13_a14_proc_1 + pi_d_a14_a13_proc_0 + pi_d_a14_a13_proc_1 >= 0
 c41: 817 pi_p_a14_a11 + 817 pi_p_a14_a9 + 817 pi_p_a14_a12
      + 817 pi_d_a14_a0_proc_0 + 817 pi_d_a14_a1_proc_0 + 817 pi_d_a14_a2_proc_0
      + 817 pi_d_a14_a3_proc_0 + 817 pi_d_a14_a4_proc_0 + 817 pi_d_a14_a5_proc_0
      + 817 pi_d_a14_a6_proc_0 + 817 pi_d_a14_a7_proc_0 + 817 pi_d_a14_a8_proc_0
      + 817 pi_d_a14_a9_proc_0 + 817 pi_d_a14_a11_proc_0
      + 817 pi_d_a14_a12_proc_0 + 817 pi_d_a14_a13_proc_0 + pi_y1_a14
      + pi_y2_a14_proc_0 >= 0
 c42: 996 pi_p_a14_a11 + 996 pi_p_a14_a9 + 996 pi_p_a14_a12
      + 996 pi_d_a14_a1_proc_1 + 996 pi_d_a14_a2_proc_1 + 996 pi_d_a14_a4_proc_1
      + 996 pi_d_a14_a6_proc_1 + 996 pi_d_a14_a7_proc_1 + 996 pi_d_a14_a8_proc_1
      + 996 pi_d_a14_a9_proc_1 + 996 pi_d_a14_a10_proc_1
      + 996 pi_d_a14_a11_proc_1 + 996 pi_d_a14_a12_proc_1
      + 996 pi_d_a14_a13_proc_1 + pi_y1_a14 + pi_y2_a14_proc_1 >= 0

Bounds
       pi_y1_a0 Free
       pi_y1_a1 Free
       pi_y1_a2 Free
       pi_y1_a3 Free
       pi_y1_a4 Free
       pi_y1_a5 Free
       pi_y1_a6 Free
       pi_y1_a7 Free
       pi_y1_a8 Free
       pi_y1_a9 Free
       pi_y1_a10 Free
       pi_y1_a11 Free
       pi_y1_a12 Free
       pi_y1_a13 Free
       pi_y1_a14 Free
End
